NAME : Euclidean Random Tour : n = 100, sample = 12 
COMMENT : Coordinates are generated uniformly sampled from [0, 100000] x [0, 100000] 
DIMENSION : 100 
EDGE_WEIGHT_TYPE : EUC_2D 
TOUR_SECTION 
1
83
85
8
29
43
84
12
46
100
36
40
65
23
78
97
89
52
66
5
35
62
76
73
93
91
38
24
58
22
37
70
28
86
69
18
33
55
99
39
74
11
63
92
49
17
26
68
6
72
50
44
19
59
14
82
71
80
98
41
95
75
54
94
32
87
10
67
48
61
25
42
21
45
51
90
77
53
2
34
60
64
57
81
7
79
15
20
31
16
13
9
4
30
3
88
96
47
56
27
-1
